30 2600 100000 0 0 10 20
12000 16000 0
 11753	  14521     513
 18478	  343	    823
 8902	  17909     413
 4164	  17244     349
 21409	  23706     557
 13118	  5136	    595
 23848	  6905	    685
 8721	  15199     702
 14724	  3467	    562
 882	  7119	    29
 2011	   8053       633
 14930	   16046      140
 12059	   22809      783
 20229	   18078      802
 19838	   15720      289
 4882	   8944       391
 18152	   14829      303
 20952	   939	      659
 23170	   18442      759
 997	   7677       151
 3838	   24076      229
 21785	   12332      424
 23903	   563	      439
 15733	   27639      423
 4450	   5945       361
 11186	   7301       701
 9931	   7827       534
 12701	   23875      609
 8726	   5130       313
 1048	   889	      897
 
